n_res = 4;
rc = [ 20, 34, 29, 31 ];
n_tasks = 30;
d = [ 6, 8, 7, 4, 4, 8, 10, 10, 4, 9, 3, 9, 8, 7, 1, 1, 6, 6, 5, 6, 4, 6, 10, 6, 8, 4, 9, 4, 10, 8 ];
rr = [| 2, 2, 2, 1, 0, 7, 5, 5, 9, 0, 1, 7, 3, 0, 0, 5, 10, 0, 10, 4, 0, 6, 3, 7, 0, 2, 9, 3, 7, 0
      | 0, 10, 0, 3, 0, 0, 10, 0, 9, 10, 7, 1, 0, 10, 1, 0, 8, 5, 0, 0, 5, 2, 5, 7, 4, 7, 10, 4, 9, 10
      | 8, 3, 4, 2, 7, 3, 8, 0, 10, 8, 9, 9, 4, 0, 9, 9, 0, 1, 10, 8, 2, 4, 2, 4, 2, 0, 10, 10, 0, 3
      | 5, 0, 2, 9, 0, 3, 8, 4, 8, 2, 2, 9, 0, 10, 4, 4, 7, 7, 8, 0, 9, 7, 9, 7, 0, 0, 0, 10, 9, 2 |];
suc = [ { 2 }, 
        { 3 }, 
        { 4 }, 
        { 5 }, 
        { 6 }, 
        { 7 }, 
        { 8 }, 
        { 9 }, 
        { 10 }, 
        { 11 }, 
        { 12 }, 
        { 13 }, 
        { 14 }, 
        { 15 }, 
        { 16 }, 
        { 17 }, 
        { 18 }, 
        { 19 }, 
        { 20 }, 
        { 21 }, 
        { 22 }, 
        { 23 }, 
        { 24 }, 
        { 25 }, 
        { 26 }, 
        { 27 }, 
        { 28 }, 
        { 29 }, 
        { 30 }, 
        {  }]; 
